c Result of efficient AIG-to-CNF conversion using package CNF
p cnf 10 15
-2 6 4 0
-2 9 3 4 0
2 -4 0
2 -6 -3 0
2 -6 -9 0
3 5 -10 0
-3 -5 0
-3 10 0
4 6 7 -8 0
4 -5 -7 -8 0
-4 8 0
-4 -6 7 0
-4 5 -7 0
-12 0
2 0

